781
3238
6058
9560
7953
8337
1931
9996
7685
1886
9355
1373
2827
7397
2194
2422
1843
454
3009
4792
4647
1491
8862
5714
1853
7836
6684
1132
6126
2791
8079
776
4211
9692
5392
9555
1103
8618
9554
7660
6490
8957
3635
7155
6992
3526
7757
913
3042
1636
